c description: Random 24-CNF over 40 variables and 24 clauses
c generator: CNFgen (0.9.3-1)
c copyright: (C) 2012-2022 Massimo Lauria <massimo.lauria@uniroma1.it>
c url: https://massimolauria.net/cnfgen
c command line: cnfgen randkcnf 24 40 24
c
p cnf 40 24
2 -5 6 7 8 10 -13 14 -16 17 18 19 20 -21 -22 -24 -27 -28 -29 -33 -34 35 -37 40 0
-2 6 9 10 13 -15 16 17 18 19 20 21 22 -23 24 25 26 32 33 -34 35 -36 -37 -40 0
-2 -4 -5 -8 9 11 -12 14 16 -17 -18 20 -22 -24 25 26 29 30 31 -32 -34 -35 -36 39 0
1 4 6 -11 -13 16 -17 20 21 22 23 25 -26 27 -29 -30 31 32 -33 -34 35 -36 38 -39 0
1 2 -4 5 -6 -11 13 -14 -15 -16 19 20 21 22 -24 -28 -29 30 -32 33 -34 35 37 39 0
1 -4 -5 -9 -11 13 -14 -15 16 -18 -19 -21 -22 25 -26 -28 -29 -30 -32 -34 -35 -36 -39 -40 0
2 4 -5 6 9 16 -17 -18 -21 22 -23 25 26 28 -29 30 31 32 -33 34 36 37 -38 39 0
-2 4 -6 -8 -9 11 14 16 -17 20 -21 -22 23 24 -25 26 28 29 -30 -33 -35 36 37 -40 0
-1 -3 -5 8 -10 -11 -12 13 15 17 -19 20 -23 24 -27 29 -30 -32 -33 -36 37 38 -39 -40 0
2 3 -5 8 9 10 12 13 16 -19 22 23 24 25 -26 -27 30 33 34 35 -36 37 -38 40 0
-2 -3 4 -5 -6 -9 12 -13 -14 19 -21 22 23 -24 25 26 -27 28 -29 -30 -31 -33 -38 -40 0
-1 -3 6 -7 -8 9 -10 12 -13 -17 -18 -19 -21 23 -25 -26 27 -28 32 33 36 38 -39 -40 0
-2 -3 4 7 9 10 -11 12 -16 17 -19 22 -23 24 -25 -27 -28 29 -30 33 -36 38 -39 -40 0
2 -3 4 5 6 7 -10 -13 -14 20 22 23 25 -27 28 29 30 -31 32 -34 -35 36 -37 39 0
-1 2 -3 -4 5 -6 -10 11 -12 13 14 15 -16 -17 19 20 22 25 27 -28 29 32 35 40 0
1 2 3 -4 6 8 -9 11 16 19 -20 21 -22 -24 -27 -29 -30 -31 32 33 35 38 -39 -40 0
1 -2 -5 -6 9 10 11 -13 -14 -15 -17 -18 -19 21 22 -24 -26 28 -29 -30 -31 -32 35 39 0
-1 -2 -3 -4 9 -11 -12 16 17 18 -19 -20 21 22 -23 -24 -25 27 28 -31 -34 -36 -37 40 0
1 -2 -3 5 -6 7 -8 9 12 14 -15 16 -17 -19 20 25 -27 -30 -32 -33 34 36 39 40 0
-1 -2 -4 -6 8 -10 -11 14 -15 17 19 -20 -21 22 -23 -24 25 -27 -30 -31 34 -37 38 -39 0
-2 3 -4 5 8 -9 10 13 14 -17 -18 20 -23 25 -26 27 28 29 31 -32 -34 -37 -38 -39 0
-1 2 -3 7 8 9 -11 12 -15 -16 -20 -21 -22 23 26 -27 -30 31 32 34 35 -36 -39 40 0
1 -4 6 8 -13 -15 16 17 20 23 25 26 -27 28 29 -30 31 -32 33 36 37 38 -39 40 0
1 -2 -3 4 -8 9 -10 -13 15 -18 20 21 -22 24 -26 -28 -30 31 -33 35 36 -37 38 39 0
